networks/zoo_54_564/zoo_54_564-lower.txt
Number of groups: 27
Flow 1: {1 2 0} {2 29 0} 
Flow 2: {2 19 0} {19 3 0} {3 30 0} 
Flow 3: {19 4 0} {4 31 0} 
Flow 4: {2 16 0} {16 12 0} {12 8 0} {8 5 0} {5 32 0} 
Flow 5: {8 6 0} {6 33 0} 
Flow 6: {8 7 0} {7 34 0} 
Flow 7: {8 35 0} 
Flow 8: {8 9 0} {9 36 0} 
Flow 9: {9 10 0} {10 37 0} 
Flow 10: {12 11 0} {11 38 0} 
Flow 11: {12 39 0} 
Flow 12: {9 14 0} {14 41 0} 
Flow 13: {16 15 0} {15 42 0} 
Flow 14: {16 43 0} 
Flow 15: {16 17 0} {17 44 0} 
Flow 16: {19 46 0} 
Flow 17: {16 24 0} {24 21 0} {21 20 0} {20 47 0} 
Flow 18: {21 48 0} 
Flow 19: {24 23 0} {23 50 0} 
Flow 20: {24 51 0} 
Flow 21: {19 25 0} {25 52 0} 
Flow 22: {25 26 0} {26 53 0} 
Flow 23: {25 27 0} {27 54 0} 
Flow 38: {21 18 0} {18 45 0} 
Flow 42: {21 22 0} {22 49 0} 
Flow 48: {3 19 0} {19 2 0} Flow 60: {25 24 0} Flow 67: {4 19 0} Flow 86: {5 8 0} {8 12 0} {12 16 0} {16 2 0} Flow 100: {9 18 0} Flow 102: {18 21 0} Flow 106: {24 25 0} Flow 109: {6 8 0} Flow 131: {7 8 0} Flow 153: {2 1 0} {1 28 0} 
Flow 164: {12 13 0} {13 40 0} 
Flow 179: {9 8 0} Flow 200: {21 24 0} Flow 205: {10 9 0} Flow 227: {11 12 0} Flow 258: {13 12 0} Flow 281: {14 9 0} Flow 295: {15 16 0} Flow 343: {17 16 0} Flow 365: {24 16 0} Flow 366: {25 19 0} Flow 368: {18 9 0} Flow 412: {20 21 0} Flow 437: {22 21 0} Flow 456: {23 24 0} Flow 526: {26 25 0} Flow 543: {27 25 0} Time taken running everything: 0 seconds
