networks/zoo_54_564/zoo_54_564-lower.sol
<?xml version = "1.0" encoding="UTF-8" standalone="yes"?>
<CPLEXSolution version="1.2">
 <header
   problemName="networks/zoo_54_564/zoo_54_564-lower.lp"
   solutionName="incumbent"
   solutionIndex="-1"
   objectiveValue="27"
   solutionTypeValue="3"
   solutionTypeString="primal"
   solutionStatusValue="101"
   solutionStatusString="integer optimal solution"
   solutionMethodString="mip"
   primalFeasible="1"
   dualFeasible="1"
   MIPNodes="0"
   MIPIterations="0"
   writeLevel="3"/>
 <quality
   epInt="1.0000000000000001e-05"
   epRHS="9.9999999999999995e-07"
   maxIntInfeas="0"
   maxPrimalInfeas="0"
   maxX="1"
   maxSlack="1"/>
 <variables>
  <variable name="Y(1,2)" index="1" value="1"/>
  <variable name="Y(2,3)" index="56" value="1"/>
  <variable name="Y(3,4)" index="111" value="1"/>
  <variable name="Y(4,5)" index="166" value="1"/>
  <variable name="Y(5,6)" index="221" value="1"/>
  <variable name="Y(6,7)" index="276" value="1"/>
  <variable name="Y(7,8)" index="331" value="1"/>
  <variable name="Y(8,9)" index="386" value="1"/>
  <variable name="Y(9,10)" index="441" value="1"/>
  <variable name="Y(10,11)" index="496" value="1"/>
  <variable name="Y(11,12)" index="551" value="1"/>
  <variable name="Y(12,14)" index="607" value="1"/>
  <variable name="Y(13,15)" index="662" value="1"/>
  <variable name="Y(14,16)" index="717" value="1"/>
  <variable name="Y(15,17)" index="772" value="1"/>
  <variable name="Y(16,19)" index="828" value="1"/>
  <variable name="Y(17,20)" index="883" value="1"/>
  <variable name="Y(18,21)" index="938" value="1"/>
  <variable name="Y(19,23)" index="994" value="1"/>
  <variable name="Y(20,24)" index="1049" value="1"/>
  <variable name="Y(21,25)" index="1104" value="1"/>
  <variable name="Y(22,26)" index="1159" value="1"/>
  <variable name="Y(23,27)" index="1214" value="1"/>
  <variable name="Y(38,18)" index="2015" value="1"/>
  <variable name="Y(42,22)" index="2235" value="1"/>
  <variable name="Y(153,1)" index="8208" value="1"/>
  <variable name="Y(164,13)" index="8814" value="1"/>
  <variable name="X(1,2,1)" index="30456" value="1"/>
  <variable name="X(1,28,153)" index="31172" value="1"/>
  <variable name="X(2,1,153)" index="31736" value="1"/>
  <variable name="X(2,16,4)" index="32151" value="1"/>
  <variable name="X(2,19,2)" index="32713" value="1"/>
  <variable name="X(2,29,1)" index="33276" value="1"/>
  <variable name="X(3,19,48)" index="33887" value="1"/>
  <variable name="X(3,30,2)" index="34405" value="1"/>
  <variable name="X(4,19,67)" index="35034" value="1"/>
  <variable name="X(4,31,3)" index="35534" value="1"/>
  <variable name="X(5,8,86)" index="36181" value="1"/>
  <variable name="X(5,32,4)" index="36663" value="1"/>
  <variable name="X(6,8,109)" index="37332" value="1"/>
  <variable name="X(6,33,5)" index="37792" value="1"/>
  <variable name="X(7,8,131)" index="38482" value="1"/>
  <variable name="X(7,34,6)" index="38921" value="1"/>
  <variable name="X(8,5,4)" index="39483" value="1"/>
  <variable name="X(8,6,5)" index="40048" value="1"/>
  <variable name="X(8,7,6)" index="40613" value="1"/>
  <variable name="X(8,9,8)" index="41179" value="1"/>
  <variable name="X(8,12,86)" index="41821" value="1"/>
  <variable name="X(8,35,7)" index="42306" value="1"/>
  <variable name="X(9,8,179)" index="43042" value="1"/>
  <variable name="X(9,10,9)" index="43436" value="1"/>
  <variable name="X(9,14,12)" index="44003" value="1"/>
  <variable name="X(9,18,100)" index="44655" value="1"/>
  <variable name="X(9,36,8)" index="45127" value="1"/>
  <variable name="X(10,9,205)" index="45888" value="1"/>
  <variable name="X(10,37,9)" index="46256" value="1"/>
  <variable name="X(11,12,227)" index="47038" value="1"/>
  <variable name="X(11,38,10)" index="47385" value="1"/>
  <variable name="X(12,8,4)" index="47943" value="1"/>
  <variable name="X(12,11,10)" index="48513" value="1"/>
  <variable name="X(12,13,164)" index="49231" value="1"/>
  <variable name="X(12,16,86)" index="49717" value="1"/>
  <variable name="X(12,39,11)" index="50206" value="1"/>
  <variable name="X(13,12,258)" index="51017" value="1"/>
  <variable name="X(13,40,164)" index="51487" value="1"/>
  <variable name="X(14,9,281)" index="52168" value="1"/>
  <variable name="X(14,41,12)" index="52463" value="1"/>
  <variable name="X(15,16,295)" index="53310" value="1"/>
  <variable name="X(15,42,13)" index="53592" value="1"/>
  <variable name="X(16,2,86)" index="54229" value="1"/>
  <variable name="X(16,12,4)" index="54711" value="1"/>
  <variable name="X(16,15,13)" index="55284" value="1"/>
  <variable name="X(16,17,15)" index="55850" value="1"/>
  <variable name="X(16,24,17)" index="56416" value="1"/>
  <variable name="X(16,43,14)" index="56977" value="1"/>
  <variable name="X(17,16,343)" index="57870" value="1"/>
  <variable name="X(17,44,15)" index="58106" value="1"/>
  <variable name="X(18,9,368)" index="59023" value="1"/>
  <variable name="X(18,21,102)" index="59321" value="1"/>
  <variable name="X(18,45,38)" index="59821" value="1"/>
  <variable name="X(19,2,48)" index="60395" value="1"/>
  <variable name="X(19,3,2)" index="60913" value="1"/>
  <variable name="X(19,4,3)" index="61478" value="1"/>
  <variable name="X(19,25,21)" index="62060" value="1"/>
  <variable name="X(19,46,16)" index="62619" value="1"/>
  <variable name="X(20,21,412)" index="63579" value="1"/>
  <variable name="X(20,47,17)" index="63748" value="1"/>
  <variable name="X(21,18,38)" index="64333" value="1"/>
  <variable name="X(21,20,17)" index="64876" value="1"/>
  <variable name="X(21,22,42)" index="65465" value="1"/>
  <variable name="X(21,24,200)" index="66187" value="1"/>
  <variable name="X(21,48,18)" index="66569" value="1"/>
  <variable name="X(22,21,437)" index="67552" value="1"/>
  <variable name="X(22,49,42)" index="67721" value="1"/>
  <variable name="X(23,24,456)" index="68699" value="1"/>
  <variable name="X(23,50,19)" index="68826" value="1"/>
  <variable name="X(24,16,365)" index="69736" value="1"/>
  <variable name="X(24,21,17)" index="69952" value="1"/>
  <variable name="X(24,23,19)" index="70518" value="1"/>
  <variable name="X(24,25,106)" index="71169" value="1"/>
  <variable name="X(24,51,20)" index="71647" value="1"/>
  <variable name="X(25,19,366)" index="72557" value="1"/>
  <variable name="X(25,24,60)" index="72815" value="1"/>
  <variable name="X(25,26,22)" index="73341" value="1"/>
  <variable name="X(25,27,23)" index="73906" value="1"/>
  <variable name="X(25,52,21)" index="74468" value="1"/>
  <variable name="X(26,25,526)" index="75537" value="1"/>
  <variable name="X(26,53,22)" index="75597" value="1"/>
  <variable name="X(27,25,543)" index="76682" value="1"/>
  <variable name="X(27,54,23)" index="76726" value="1"/>
 </variables>
</CPLEXSolution>
